25 40
1 2 4
1 6 2
2 3 4
2 7 5
3 4 1
3 8 5
4 5 5
4 9 5
5 10 2
6 7 4
6 11 2
7 8 2
7 12 1
8 9 1
8 13 1
9 10 5
9 14 4
10 15 4
11 12 5
11 16 3
12 13 3
12 17 5
13 14 3
13 18 2
14 15 2
14 19 3
15 20 1
16 17 5
16 21 1
17 18 4
17 22 4
18 19 4
18 23 5
19 20 5
19 24 2
20 25 5
21 22 1
22 23 1
23 24 4
24 25 4
